/* Objective function */
min: +cost.0;

/* Constraints */
+0.0161990076303 size.L1.0 +14 mr.L1.0 >= 3.44689273834;
+0.0161990076303 size.L2i.0 +14 mr.L2.0 >= 3.44689273834;
+0.00873199105262 size.L1.0 +13 mr.L1.0 >= 2.79684925079;
+0.00873199105262 size.L2i.0 +13 mr.L2.0 >= 2.79684925079;
+0.0128989964724 size.L1.0 +29 mr.L1.0 >= 5.73246097565;
+0.0128989964724 size.L2i.0 +29 mr.L2.0 >= 5.73246097565;
+0.00950300693512 size.L1.0 +31 mr.L1.0 >= 5.67353248596;
+0.00950300693512 size.L2i.0 +31 mr.L2.0 >= 5.67353248596;
+0.0108759999275 size.L1.0 +59 mr.L1.0 >= 9.81019210815;
+0.0108759999275 size.L2i.0 +59 mr.L2.0 >= 9.81019210815;
+0.0078139975667 size.L1.0 +61 mr.L1.0 >= 9.47032546997;
+0.0078139975667 size.L2i.0 +61 mr.L2.0 >= 9.47032546997;
+0.00969200581312 size.L1.0 +124 mr.L1.0 >= 17.6597652435;
+0.00969200581312 size.L2i.0 +124 mr.L2.0 >= 17.6597652435;
+0.00640899688005 size.L1.0 +119 mr.L1.0 >= 15.8457527161;
+0.00640899688005 size.L2i.0 +119 mr.L2.0 >= 15.8457527161;
+0.00869199633598 size.L1.0 +253 mr.L1.0 >= 31.2219390869;
+0.00869199633598 size.L2i.0 +253 mr.L2.0 >= 31.2219390869;
+0.005804002285 size.L1.0 +250 mr.L1.0 >= 28.7546615601;
+0.005804002285 size.L2i.0 +250 mr.L2.0 >= 28.7546615601;
+0.00769799947738 size.L1.0 +510 mr.L1.0 >= 54.5049285889;
+0.00769799947738 size.L2i.0 +510 mr.L2.0 >= 54.5049285889;
+0.0052610039711 size.L1.0 +514 mr.L1.0 >= 51.1538848877;
+0.0052610039711 size.L2i.0 +514 mr.L2.0 >= 51.1538848877;
+0.00707599520684 size.L1.0 +1024 mr.L1.0 >= 95.0076141357;
+0.00707599520684 size.L2i.0 +1024 mr.L2.0 >= 95.0076141357;
+0.00466300547123 size.L1.0 +1026 mr.L1.0 >= 87.7889709473;
+0.00466300547123 size.L2i.0 +1026 mr.L2.0 >= 87.7889709473;
+0.00575599819422 size.L1.0 +2047 mr.L1.0 >= 160.687835693;
+0.00575599819422 size.L2i.0 +2047 mr.L2.0 >= 160.687835693;
+0.00340599939227 size.L1.0 +2052 mr.L1.0 >= 146.602844238;
+0.00340599939227 size.L2i.0 +2052 mr.L2.0 >= 146.602844238;
+0.00348699837923 size.L1.0 +4095 mr.L1.0 >= 265.499603271;
+0.00348699837923 size.L2i.0 +4095 mr.L2.0 >= 265.499603271;
+0.0012500025332 size.L1.0 +4099 mr.L1.0 >= 238.266967773;
+0.0012500025332 size.L2i.0 +4099 mr.L2.0 >= 238.266967773;
+0.000131998211146 size.L1.0 +8194 mr.L1.0 >= 437.557189941;
+0.000131998211146 size.L2i.0 +8194 mr.L2.0 >= 437.557189941;
R39: +8196 mr.L1.0 >= 434.420776367;
R40: +8196 mr.L2.0 >= 434.420776367;
R41: +16377 mr.L1.0 >= 868.046508789;
R42: +16377 mr.L2.0 >= 868.046508789;
R43: +size.L1.0 >= 50;
R44: +size.L2i.0 >= 50;
R45: +size.L1.0 <= 49137;
R46: +size.L2i.0 <= 49137;
-size.L1.0 +size.L2i.0 >= 0;
+0.1 mr.L1.0 +9.8 mr.L2.0 -lat.0 = -0.1;
R49: +lat.0 <= 0.800000011921;
+0.0091015625 size.L1.0 +0.0006640625 size.L2i.0 -cost.0 = 0;
